p cnf 50 75
1 41 0
1 20 0
1 9 0
2 50 0
2 24 0
2 33 0
3 46 0
3 8 0
3 42 0
4 43 0
4 25 0
4 21 0
5 39 0
5 49 0
5 18 0
6 37 0
6 7 0
6 48 0
7 23 0
7 15 0
8 27 0
8 32 0
9 25 0
9 46 0
10 29 0
10 42 0
10 19 0
11 17 0
11 38 0
11 13 0
12 41 0
12 34 0
12 42 0
13 47 0
13 15 0
14 48 0
14 15 0
14 36 0
16 43 0
16 39 0
16 36 0
17 37 0
17 32 0
18 35 0
18 44 0
19 22 0
19 24 0
20 26 0
20 45 0
21 26 0
21 40 0
22 50 0
22 44 0
23 37 0
23 39 0
24 50 0
25 40 0
26 31 0
27 38 0
27 29 0
28 40 0
28 33 0
28 38 0
29 35 0
30 35 0
30 41 0
30 49 0
31 44 0
31 34 0
32 36 0
33 47 0
34 48 0
43 45 0
45 46 0
47 49 0
g -30